30519.81 0
0 199 155 180 78 12 178 87 26 23 164 146 40 83 136 171 14 72 38 90 53 153 62 151 15 76 42 70 187 122 121 92 3 154 43 59 52 123 176 4 117 61 34 36 195 18 191 50 118 99 1 29 143 47 140 91 116 135 144 177 54 112 86 25 162 130 147 94 55 150 27 11 114 105 103 182 81 132 46 20 181 163 113 24 19 141 9 8 101 115 2 82 39 5 58 149 63 84 17 188 142 95 85 159 173 64 186 13 67 32 165 44 98 77 30 56 71 134 160 79 193 156 106 183 157 68 133 75 126 108 124 145 45 120 189 100 194 197 73 111 60 170 6 74 66 131 128 107 198 35 158 175 196 190 28 127 57 102 110 192 21 184 172 152 69 48 169 97 138 89 88 10 167 109 41 22 185 148 37 65 7 51 137 119 179 80 33 129 174 49 168 93 16 139 166 96 104 31 161 125